c turning on binary mode checking
c parsing input formula with 202048 variables and 780985 clauses
c finished parsing, read 16922854 bytes from proof file
c detected empty clause; start verification via backward checking
c 12943 of 780985 clauses in core                            
c 16784 of 453530 lemmas in core using 91330 resolution steps
c 0 RAT lemmas in core; 713 redundant literals in core lemmas
s VERIFIED
c verification time: 2.192 seconds
